45245.04,61.1,74.1
38480.42,71.84,87.12
38899.68,71.07,86.18
38978.64,70.93,86.01
42664.66,64.8,78.58
42088.72,65.68,79.66
38814.84,71.22,86.37
35994.27,76.81,93.14
43474.69,63.59,77.12
41478.98,66.65,80.83
41283.35,66.97,81.21
37897.8,72.95,88.46
40091.37,68.96,83.62
38359.47,72.07,87.4
44944.34,61.51,74.59
42613.19,64.88,78.67
39028.21,70.83,85.9
35742.5,77.35,93.8
41054.59,67.34,81.66
40568.09,68.15,82.64
